solution status: optimal solution found
objective value:                     169794.048755192
d11(0,0)                                            1 	(obj:0)
d11(1,1)                                            1 	(obj:0)
d11(1,2)                                            1 	(obj:0)
d11(2,3)                                            1 	(obj:0)
d11(2,5)                                            1 	(obj:0)
d11(2,6)                                            1 	(obj:0)
d11(3,7)                                            1 	(obj:0)
d11(3,9)                                            1 	(obj:0)
d11(3,11)                                           1 	(obj:0)
d11(3,12)                                           1 	(obj:0)
d11(3,13)                                           1 	(obj:0)
d11(3,14)                                           1 	(obj:0)
d11(4,15)                                           1 	(obj:0)
d11(4,17)                                           1 	(obj:0)
d11(4,19)                                           1 	(obj:0)
d11(4,21)                                           1 	(obj:0)
d11(4,23)                                           1 	(obj:0)
d11(4,25)                                           1 	(obj:0)
d11(4,29)                                           1 	(obj:0)
d12(4,16)                                           1 	(obj:0)
d12(4,18)                                           1 	(obj:0)
d12(4,20)                                           1 	(obj:0)
d12(4,22)                                           1 	(obj:0)
d12(4,24)                                           1 	(obj:0)
d12(4,26)                                           1 	(obj:0)
d12(4,28)                                           1 	(obj:0)
d12(4,30)                                           1 	(obj:0)
d21(3,7)                                            1 	(obj:0)
d21(3,8)                                            1 	(obj:0)
d21(3,9)                                            1 	(obj:0)
d21(3,11)                                           1 	(obj:0)
d21(4,15)                                           1 	(obj:0)
d21(4,16)                                           1 	(obj:0)
d21(4,17)                                           1 	(obj:0)
d21(4,18)                                           1 	(obj:0)
d21(4,19)                                           1 	(obj:0)
d21(4,20)                                           1 	(obj:0)
d21(4,23)                                           1 	(obj:0)
d21(4,24)                                           1 	(obj:0)
y2(4,16)                             1385.48851144895 	(obj:0)
y2(4,18)                             1385.48851144895 	(obj:0)
y2(4,20)                             1385.48851144895 	(obj:0)
y2(4,22)                             1385.48851144895 	(obj:0)
y2(4,24)                             1385.48851144895 	(obj:0)
y2(4,26)                             1385.48851144895 	(obj:0)
y2(4,28)                             1385.48851144895 	(obj:0)
y2(4,30)                             1385.48851144895 	(obj:0)
STE(1,1)                              8063.9999999907 	(obj:0)
STE(0,0)                                        12600 	(obj:0)
STE(1,2)                             9722.24989888949 	(obj:0)
STE(2,3)                             5397.75010110186 	(obj:0)
STE(2,4)                              7055.9999999907 	(obj:0)
STE(2,5)                             7056.00000000064 	(obj:0)
STE(2,6)                             8714.24989888946 	(obj:0)
STE(3,7)                             2731.50020221299 	(obj:0)
STE(3,8)                             4389.75010110186 	(obj:0)
STE(3,9)                             4389.75010110183 	(obj:0)
STE(3,10)                             6047.9999999907 	(obj:0)
STE(3,11)                            4389.75010111177 	(obj:0)
STE(3,12)                            6048.00000000064 	(obj:0)
STE(3,13)                            6048.00000000059 	(obj:0)
STE(3,14)                            7706.24989888946 	(obj:0)
STE(4,15)                            1723.50020221299 	(obj:0)
STE(4,16)                            3039.71428808949 	(obj:0)
STE(4,17)                            3381.75010110186 	(obj:0)
STE(4,18)                            4697.96418697836 	(obj:0)
STE(4,19)                            3381.75010110177 	(obj:0)
STE(4,20)                            4697.96418697834 	(obj:0)
STE(4,21)                             5039.9999999907 	(obj:0)
STE(4,22)                            6356.21408586721 	(obj:0)
STE(4,23)                            3381.75010111171 	(obj:0)
STE(4,24)                            4697.96418698828 	(obj:0)
STE(4,25)                            5040.00000000068 	(obj:0)
STE(4,26)                            6356.21408587715 	(obj:0)
STE(4,27)                            5040.00000000059 	(obj:0)
STE(4,28)                             6356.2140858771 	(obj:0)
STE(4,29)                            6698.24989888946 	(obj:0)
STE(4,30)                            8014.46398476597 	(obj:0)
y1(3,11)                             1492.42490899998 	(obj:0)
y1(3,13)                             1492.42490899998 	(obj:0)
AVE(1)                               3265.91696791192 	(obj:0)
AVE(2)                               3332.74178563731 	(obj:0)
AVE(3)                               3444.11697932125 	(obj:0)
WB(4)                                3399.56511093778 	(obj:0)
AVE(4)                               3399.56511093778 	(obj:0)
WG(1)                                3265.91696791192 	(obj:10)
WG(2)                                3332.74178563731 	(obj:10)
WG(3)                                3444.11697932125 	(obj:10)
BG(1)                                2647.49297087217 	(obj:10)
BG(2)                                863.550713342282 	(obj:10)
BG(3)                                752.175519658342 	(obj:10)
BG(4)                                2673.40993877551 	(obj:10)
y1(1,1)                              3175.20000000837 	(obj:0)
y1(1,2)                              1682.77509099946 	(obj:0)
y1(2,3)                              1492.42490899996 	(obj:0)
y1(2,5)                              1492.42490899996 	(obj:0)
y1(3,7)                              1492.42490899998 	(obj:0)
y1(3,9)                              1492.42490899998 	(obj:0)
